0 7984094
325 7698029
650 7562607
975 7475395
1300 7394755
1625 7349294
1950 7307876
2275 7272058
2600 7250010
2925 7227007
3250 7207957
3575 7194060
3900 7184205
4225 7176301
4550 7169398
4875 7166529
5200 7159163
5525 7158233
5850 7156751
6175 7145714
6500 7145053
6825 7144490
7150 7144125
7475 7143865
7800 7143732
8125 7143641
8450 7143578
8775 7143519
9100 7143511
9425 7143492
